Version identifier: 22.1.1.0 | 2022-11-28 | 9160aff4d
CPXPARAM_ClockType                               1
CPXPARAM_Read_DataCheck                          1
CPXPARAM_Threads                                 1
CPXPARAM_TimeLimit                               7200
CPXPARAM_MIP_Tolerances_AbsMIPGap                0
CPXPARAM_MIP_Tolerances_MIPGap                   0
CPXPARAM_MIP_Tolerances_Integrality              0
Tried aggregator 2 times.
MIP Presolve eliminated 124620 rows and 0 columns.
MIP Presolve modified 48340 coefficients.
Aggregator did 1890 substitutions.
Reduced MIP has 47230 rows, 6930 columns, and 332990 nonzeros.
Reduced MIP has 6930 binaries, 0 generals, 0 SOSs, and 0 indicators.
Presolve time = 2.51 sec. (1512.90 ticks)
Probing time = 0.02 sec. (3.79 ticks)
Tried aggregator 1 time.
Detecting symmetries...
MIP Presolve eliminated 65 rows and 0 columns.
Reduced MIP has 47165 rows, 6930 columns, and 331625 nonzeros.
Reduced MIP has 6930 binaries, 0 generals, 0 SOSs, and 0 indicators.
Presolve time = 0.88 sec. (549.47 ticks)
Probing time = 0.02 sec. (3.80 ticks)
Clique table members: 45645.
MIP emphasis: balance optimality and feasibility.
MIP search method: dynamic search.
Parallel mode: none, using 1 thread.
Root relaxation solution time = 496.23 sec. (328343.04 ticks)

        Nodes                                         Cuts/
   Node  Left     Objective  IInf  Best Integer    Best Bound    ItCnt     Gap

      0     0      940.9845  2092                    940.9845   377702         
      0     0      610.9256  1217                   Cuts: 839   613147         
      0     0      600.0000  1230                   Cuts: 897   807935         
      0     0      600.0000  1246                   Cuts: 996   920070         
      0     0      600.0000  1180                 Cliques: 37  1074385         
      0     0      600.0000  1325                  Cuts: 1490  1146020         

Clique cuts applied:  124
Zero-half cuts applied:  1

Root node processing (before b&c):
  Real time             = 7200.09 sec. (2768987.88 ticks)
Sequential b&c:
  Real time             =    0.00 sec. (0.00 ticks)
                          ------------
Total (root+branch&cut) = 7200.09 sec. (2768987.88 ticks)
Solution is infeasible.

---------------------
@@@ MIP_time_limit_infeasible
Traceback (most recent call last):
  File "/scratch/scherif/DiverseSAT-journal_sup/DiverseSAT_Supplementary_Experiments/experiment-1/cplex/jobs/../solvers/CPLEX-BIN.py", line 132, in <module>
    print(f">>> Benchmark {os.path.basename(cnf_file)} k {k} OPT {int(prob.solution.get_objective_value())}"
  File "/users/scherif/.local/lib/python3.9/site-packages/cplex/_internal/_subinterfaces.py", line 7211, in get_objective_value
    return CPX_PROC.getobjval(self._env._e, self._cplex._lp)
  File "/users/scherif/.local/lib/python3.9/site-packages/cplex/_internal/_procedural.py", line 2055, in getobjval
    check_status(env, status)
  File "/users/scherif/.local/lib/python3.9/site-packages/cplex/_internal/_procedural.py", line 249, in __call__
    raise CplexSolverError(error_string, env, status)
cplex.exceptions.errors.CplexSolverError: CPLEX Error  1217: No solution exists.
